0 0 0 0
0 1 1 7
0 2 1 0
0 3 2 0
0 4 0 4
0 5 0 27
0 6 2 11
0 7 2 17
0 8 2 11
0 9 2 19
0 10 2 7
0 11 1 40
0 12 1 17
0 13 0 27
0 14 2 17
0 15 1 41
0 16 2 28
0 17 0 32
0 18 2 10
0 19 0 30
0 20 1 37
0 21 0 28
0 22 2 19
0 23 2 33
0 24 0 30
0 25 1 37
0 26 2 40
0 27 2 40
0 28 1 50
0 29 0 50
0 30 1 52
0 31 0 54
